NAME : in_house_9_24
TYPE : TSP
DIMENSION : 9
EDGE_WEIGHT_TYPE : EXPLICIT
EDGE_WEIGHT_FORMAT : UPPER_ROW
COMMENT : INVERSION_SHIFT=9
EDGE_WEIGHT_SECTION
47
6
46
75
75
50
55
77
42
66
77
24
26
23
68
41
80
2
41
49
18
32
46
49
69
8
43
35
34
40
50
14
23
53
52
79
